N = 13;
H = 6;
T = 2;

avail = array3d(1..N, 1..H, 1..T, [4, 8, 8, 4, 3, 7, 6, 8, 3, 0, 2, 1, 6, 4, 4, 7, 7, 5, 9, 0, 5, 7, 7, 1, 4, 8, 8, 9, 7, 9, 3, 8, 1, 4, 4, 3, 9, 10, 1, 3, 10, 10, 5, 2, 0, 3, 6, 8, 10, 4, 0, 2, 9, 10, 8, 3, 9, 5, 4, 1, 6, 3, 4, 1, 3, 7, 9, 3, 2, 2, 0, 2, 9, 1, 0, 0, 0, 10, 4, 10, 0, 10, 7, 1, 4, 4, 6, 8, 3, 0, 3, 2, 1, 10, 3, 3, 0, 8, 3, 10, 9, 7, 4, 0, 5, 9, 6, 8, 0, 5, 0, 1, 1, 1, 10, 1, 10, 7, 9, 6, 3, 6, 1, 4, 3, 8, 6, 0, 9, 10, 7, 4, 7, 8, 4, 4, 1, 2, 3, 4, 10, 4, 3, 0, 10, 3, 0, 2, 6, 3, 7, 2, 10, 3, 2, 9]);

r = array2d(1..H, 1..T, [1, 4, 2, 4, 5, 4, 3, 5, 3, 2, 2, 1]);
